100
128
29
6
15
12
7
3
9
10
8
8
1
1
1
9
15
13
9
7
18
4
35
18
1
1
8
3
2
39
8
8
24
19
1
1
26
5
24
10
2
15
1
22
15
17
24
16
40
6
2
3
1
8
17
13
7
10
35
28
15
17
12
3
1
6
26
38
62
60
48
48
9
2
40
4
48
48
45
32
60
40
56
54
48
44
54
18
64
7
20
40
48
47
64
22
40
16
62
3
36
64